(set-info :source |printed by MathSAT|)
(declare-fun |!{$(in_main#0)<a2.2>}| () (Array Int Int))
(declare-fun |!{$(in_main#0)<a2.2>}.next| () (Array Int Int))
(declare-fun |!{$(in_main#0)<a3.3>}| () (Array Int Int))
(declare-fun |!{$(in_main#0)<a3.3>}.next| () (Array Int Int))
(declare-fun |!{$(in_main#0)<a4.4>}| () (Array Int Int))
(declare-fun |!{$(in_main#0)<a4.4>}.next| () (Array Int Int))
(declare-fun |!{$(in_main#0)<a5.5>}| () (Array Int Int))
(declare-fun |!{$(in_main#0)<a5.5>}.next| () (Array Int Int))
(declare-fun |!{$(in_main#0)<a6.6>}| () (Array Int Int))
(declare-fun |!{$(in_main#0)<a6.6>}.next| () (Array Int Int))
(declare-fun |!{$(in_main#0)<a7.7>}| () (Array Int Int))
(declare-fun |!{$(in_main#0)<a7.7>}.next| () (Array Int Int))
(declare-fun |!{$(in_main#0)<a8.8>}| () (Array Int Int))
(declare-fun |!{$(in_main#0)<a8.8>}.next| () (Array Int Int))
(declare-fun |!{$(in_main#0)<a9.9>}| () (Array Int Int))
(declare-fun |!{$(in_main#0)<a9.9>}.next| () (Array Int Int))
(declare-fun |!{$(in_main#0)<a0.10>}| () (Array Int Int))
(declare-fun |!{$(in_main#0)<a0.10>}.next| () (Array Int Int))
(declare-fun |!{$(in_main#0)<N>}| () Int)
(declare-fun |!{$(in_main#0)<N>}.next| () Int)
(declare-fun |!{$(in_main#0)<a>}| () Int)
(declare-fun |!{$(in_main#0)<a>}.next| () Int)
(declare-fun |!{$(in_main#0)<i>}| () Int)
(declare-fun |!{$(in_main#0)<i>}.next| () Int)
(declare-fun |!{$(in_main#0)<x>}| () Int)
(declare-fun |!{$(in_main#0)<x>}.next| () Int)
(declare-fun |!{$(in_main#0)<a1.1>}| () (Array Int Int))
(declare-fun |!{$(in_main#0)<a1.1>}.next| () (Array Int Int))
(declare-fun |!{$(in_main#0)<$(in___VERIFIER_nondet_int#0)<h#<__VERIFIER_nondet_int.return>>>}| () Int)
(declare-fun |!{$(in_main#0)<$(in___VERIFIER_nondet_int#1)<h#<__VERIFIER_nondet_int.return>>>}| () Int)
(declare-fun !pc () Int)
(declare-fun !pc.next () Int)
(declare-fun |%{$(in_main#0)<i>}#1| () Int)
(declare-fun |%{$(in_main#0)<x>}#1| () Int)
(declare-fun |%{$(in_main#0)<a1.1>}#1| () (Array Int Int))
(declare-fun |%{$(in_main#0)<a2.2>}#1| () (Array Int Int))
(declare-fun |%{$(in_main#0)<a3.3>}#1| () (Array Int Int))
(declare-fun |%{$(in_main#0)<a4.4>}#1| () (Array Int Int))
(declare-fun |%{$(in_main#0)<a5.5>}#1| () (Array Int Int))
(declare-fun |%{$(in_main#0)<a6.6>}#1| () (Array Int Int))
(declare-fun |%{$(in_main#0)<a7.7>}#1| () (Array Int Int))
(declare-fun |%{$(in_main#0)<a8.8>}#1| () (Array Int Int))
(declare-fun |%{$(in_main#0)<a9.9>}#1| () (Array Int Int))
(declare-fun |%{$(in_main#0)<a0.10>}#1| () (Array Int Int))
(define-fun .def_58 () Int (! !pc :next !pc.next))
(define-fun .def_61 () Bool (! (= .def_58 2) :init true))
(define-fun .def_438 () Bool (= .def_58 44))
(define-fun .def_417 () Bool (= !pc.next 65))
(define-fun .def_441 () Bool (and .def_417 .def_438))
(define-fun .def_28 () Int (! |!{$(in_main#0)<a>}| :next |!{$(in_main#0)<a>}.next|))
(define-fun .def_26 () Int (! |!{$(in_main#0)<N>}| :next |!{$(in_main#0)<N>}.next|))
(define-fun .def_424 () Bool (<= .def_26 .def_28))
(define-fun .def_243 () Bool (= |!{$(in_main#0)<i>}.next| 0))
(define-fun .def_10 () (Array Int Int) (! |!{$(in_main#0)<a3.3>}| :next |!{$(in_main#0)<a3.3>}.next|))
(define-fun .def_126 () Bool (= .def_10 |!{$(in_main#0)<a3.3>}.next|))
(define-fun .def_8 () (Array Int Int) (! |!{$(in_main#0)<a2.2>}| :next |!{$(in_main#0)<a2.2>}.next|))
(define-fun .def_124 () Bool (= .def_8 |!{$(in_main#0)<a2.2>}.next|))
(define-fun .def_153 () Bool (and .def_124 .def_126))
(define-fun .def_12 () (Array Int Int) (! |!{$(in_main#0)<a4.4>}| :next |!{$(in_main#0)<a4.4>}.next|))
(define-fun .def_128 () Bool (= .def_12 |!{$(in_main#0)<a4.4>}.next|))
(define-fun .def_154 () Bool (and .def_128 .def_153))
(define-fun .def_14 () (Array Int Int) (! |!{$(in_main#0)<a5.5>}| :next |!{$(in_main#0)<a5.5>}.next|))
(define-fun .def_130 () Bool (= .def_14 |!{$(in_main#0)<a5.5>}.next|))
(define-fun .def_155 () Bool (and .def_130 .def_154))
(define-fun .def_16 () (Array Int Int) (! |!{$(in_main#0)<a6.6>}| :next |!{$(in_main#0)<a6.6>}.next|))
(define-fun .def_132 () Bool (= .def_16 |!{$(in_main#0)<a6.6>}.next|))
(define-fun .def_156 () Bool (and .def_132 .def_155))
(define-fun .def_18 () (Array Int Int) (! |!{$(in_main#0)<a7.7>}| :next |!{$(in_main#0)<a7.7>}.next|))
(define-fun .def_134 () Bool (= .def_18 |!{$(in_main#0)<a7.7>}.next|))
(define-fun .def_157 () Bool (and .def_134 .def_156))
(define-fun .def_20 () (Array Int Int) (! |!{$(in_main#0)<a8.8>}| :next |!{$(in_main#0)<a8.8>}.next|))
(define-fun .def_136 () Bool (= .def_20 |!{$(in_main#0)<a8.8>}.next|))
(define-fun .def_158 () Bool (and .def_136 .def_157))
(define-fun .def_22 () (Array Int Int) (! |!{$(in_main#0)<a9.9>}| :next |!{$(in_main#0)<a9.9>}.next|))
(define-fun .def_138 () Bool (= .def_22 |!{$(in_main#0)<a9.9>}.next|))
(define-fun .def_159 () Bool (and .def_138 .def_158))
(define-fun .def_24 () (Array Int Int) (! |!{$(in_main#0)<a0.10>}| :next |!{$(in_main#0)<a0.10>}.next|))
(define-fun .def_140 () Bool (= .def_24 |!{$(in_main#0)<a0.10>}.next|))
(define-fun .def_160 () Bool (and .def_140 .def_159))
(define-fun .def_142 () Bool (= .def_26 |!{$(in_main#0)<N>}.next|))
(define-fun .def_161 () Bool (and .def_142 .def_160))
(define-fun .def_144 () Bool (= .def_28 |!{$(in_main#0)<a>}.next|))
(define-fun .def_162 () Bool (and .def_144 .def_161))
(define-fun .def_244 () Bool (and .def_162 .def_243))
(define-fun .def_32 () Int (! |!{$(in_main#0)<x>}| :next |!{$(in_main#0)<x>}.next|))
(define-fun .def_148 () Bool (= .def_32 |!{$(in_main#0)<x>}.next|))
(define-fun .def_245 () Bool (and .def_148 .def_244))
(define-fun .def_34 () (Array Int Int) (! |!{$(in_main#0)<a1.1>}| :next |!{$(in_main#0)<a1.1>}.next|))
(define-fun .def_150 () Bool (= .def_34 |!{$(in_main#0)<a1.1>}.next|))
(define-fun .def_246 () Bool (and .def_150 .def_245))
(define-fun .def_437 () Bool (and .def_246 .def_424))
(define-fun .def_442 () Bool (and .def_437 .def_441))
(define-fun .def_110 () Bool (= !pc.next 44))
(define-fun .def_439 () Bool (and .def_110 .def_438))
(define-fun .def_426 () (Array Int Int) (store .def_34 .def_28 |!{$(in_main#0)<$(in___VERIFIER_nondet_int#1)<h#<__VERIFIER_nondet_int.return>>>}|))
(define-fun .def_434 () Bool (= |!{$(in_main#0)<a1.1>}.next| .def_426))
(define-fun .def_428 () Int (* (- 1) |!{$(in_main#0)<a>}.next|))
(define-fun .def_429 () Int (+ .def_28 .def_428))
(define-fun .def_430 () Bool (= .def_429 (- 1)))
(define-fun .def_431 () Bool (and .def_161 .def_430))
(define-fun .def_30 () Int (! |!{$(in_main#0)<i>}| :next |!{$(in_main#0)<i>}.next|))
(define-fun .def_146 () Bool (= .def_30 |!{$(in_main#0)<i>}.next|))
(define-fun .def_432 () Bool (and .def_146 .def_431))
(define-fun .def_433 () Bool (and .def_148 .def_432))
(define-fun .def_435 () Bool (and .def_433 .def_434))
(define-fun .def_425 () Bool (not .def_424))
(define-fun .def_436 () Bool (and .def_425 .def_435))
(define-fun .def_440 () Bool (and .def_436 .def_439))
(define-fun .def_443 () Bool (or .def_440 .def_442))
(define-fun .def_416 () Bool (= .def_58 65))
(define-fun .def_391 () Bool (= !pc.next 79))
(define-fun .def_420 () Bool (and .def_391 .def_416))
(define-fun .def_203 () Bool (<= .def_26 .def_30))
(define-fun .def_247 () Bool (and .def_203 .def_246))
(define-fun .def_421 () Bool (and .def_247 .def_420))
(define-fun .def_418 () Bool (and .def_416 .def_417))
(define-fun .def_398 () Int (select .def_34 .def_30))
(define-fun .def_399 () (Array Int Int) (store .def_8 .def_30 .def_398))
(define-fun .def_400 () Bool (= |!{$(in_main#0)<a2.2>}.next| .def_399))
(define-fun .def_401 () Bool (and .def_126 .def_400))
(define-fun .def_402 () Bool (and .def_128 .def_401))
(define-fun .def_403 () Bool (and .def_130 .def_402))
(define-fun .def_404 () Bool (and .def_132 .def_403))
(define-fun .def_405 () Bool (and .def_134 .def_404))
(define-fun .def_406 () Bool (and .def_136 .def_405))
(define-fun .def_407 () Bool (and .def_138 .def_406))
(define-fun .def_408 () Bool (and .def_140 .def_407))
(define-fun .def_409 () Bool (and .def_142 .def_408))
(define-fun .def_410 () Bool (and .def_144 .def_409))
(define-fun .def_212 () Int (* (- 1) |!{$(in_main#0)<i>}.next|))
(define-fun .def_213 () Int (+ .def_30 .def_212))
(define-fun .def_214 () Bool (= .def_213 (- 1)))
(define-fun .def_411 () Bool (and .def_214 .def_410))
(define-fun .def_412 () Bool (and .def_148 .def_411))
(define-fun .def_413 () Bool (and .def_150 .def_412))
(define-fun .def_204 () Bool (not .def_203))
(define-fun .def_414 () Bool (and .def_204 .def_413))
(define-fun .def_419 () Bool (and .def_414 .def_418))
(define-fun .def_422 () Bool (or .def_419 .def_421))
(define-fun .def_390 () Bool (= .def_58 79))
(define-fun .def_365 () Bool (= !pc.next 93))
(define-fun .def_394 () Bool (and .def_365 .def_390))
(define-fun .def_395 () Bool (and .def_247 .def_394))
(define-fun .def_392 () Bool (and .def_390 .def_391))
(define-fun .def_372 () Int (select .def_8 .def_30))
(define-fun .def_373 () (Array Int Int) (store .def_10 .def_30 .def_372))
(define-fun .def_374 () Bool (= |!{$(in_main#0)<a3.3>}.next| .def_373))
(define-fun .def_375 () Bool (and .def_124 .def_374))
(define-fun .def_376 () Bool (and .def_128 .def_375))
(define-fun .def_377 () Bool (and .def_130 .def_376))
(define-fun .def_378 () Bool (and .def_132 .def_377))
(define-fun .def_379 () Bool (and .def_134 .def_378))
(define-fun .def_380 () Bool (and .def_136 .def_379))
(define-fun .def_381 () Bool (and .def_138 .def_380))
(define-fun .def_382 () Bool (and .def_140 .def_381))
(define-fun .def_383 () Bool (and .def_142 .def_382))
(define-fun .def_384 () Bool (and .def_144 .def_383))
(define-fun .def_385 () Bool (and .def_214 .def_384))
(define-fun .def_386 () Bool (and .def_148 .def_385))
(define-fun .def_387 () Bool (and .def_150 .def_386))
(define-fun .def_388 () Bool (and .def_204 .def_387))
(define-fun .def_393 () Bool (and .def_388 .def_392))
(define-fun .def_396 () Bool (or .def_393 .def_395))
(define-fun .def_364 () Bool (= .def_58 93))
(define-fun .def_340 () Bool (= !pc.next 107))
(define-fun .def_368 () Bool (and .def_340 .def_364))
(define-fun .def_369 () Bool (and .def_247 .def_368))
(define-fun .def_366 () Bool (and .def_364 .def_365))
(define-fun .def_347 () Int (select .def_10 .def_30))
(define-fun .def_348 () (Array Int Int) (store .def_12 .def_30 .def_347))
(define-fun .def_349 () Bool (= |!{$(in_main#0)<a4.4>}.next| .def_348))
(define-fun .def_350 () Bool (and .def_153 .def_349))
(define-fun .def_351 () Bool (and .def_130 .def_350))
(define-fun .def_352 () Bool (and .def_132 .def_351))
(define-fun .def_353 () Bool (and .def_134 .def_352))
(define-fun .def_354 () Bool (and .def_136 .def_353))
(define-fun .def_355 () Bool (and .def_138 .def_354))
(define-fun .def_356 () Bool (and .def_140 .def_355))
(define-fun .def_357 () Bool (and .def_142 .def_356))
(define-fun .def_358 () Bool (and .def_144 .def_357))
(define-fun .def_359 () Bool (and .def_214 .def_358))
(define-fun .def_360 () Bool (and .def_148 .def_359))
(define-fun .def_361 () Bool (and .def_150 .def_360))
(define-fun .def_362 () Bool (and .def_204 .def_361))
(define-fun .def_367 () Bool (and .def_362 .def_366))
(define-fun .def_370 () Bool (or .def_367 .def_369))
(define-fun .def_339 () Bool (= .def_58 107))
(define-fun .def_316 () Bool (= !pc.next 121))
(define-fun .def_343 () Bool (and .def_316 .def_339))
(define-fun .def_344 () Bool (and .def_247 .def_343))
(define-fun .def_341 () Bool (and .def_339 .def_340))
(define-fun .def_323 () Int (select .def_12 .def_30))
(define-fun .def_324 () (Array Int Int) (store .def_14 .def_30 .def_323))
(define-fun .def_325 () Bool (= |!{$(in_main#0)<a5.5>}.next| .def_324))
(define-fun .def_326 () Bool (and .def_154 .def_325))
(define-fun .def_327 () Bool (and .def_132 .def_326))
(define-fun .def_328 () Bool (and .def_134 .def_327))
(define-fun .def_329 () Bool (and .def_136 .def_328))
(define-fun .def_330 () Bool (and .def_138 .def_329))
(define-fun .def_331 () Bool (and .def_140 .def_330))
(define-fun .def_332 () Bool (and .def_142 .def_331))
(define-fun .def_333 () Bool (and .def_144 .def_332))
(define-fun .def_334 () Bool (and .def_214 .def_333))
(define-fun .def_335 () Bool (and .def_148 .def_334))
(define-fun .def_336 () Bool (and .def_150 .def_335))
(define-fun .def_337 () Bool (and .def_204 .def_336))
(define-fun .def_342 () Bool (and .def_337 .def_341))
(define-fun .def_345 () Bool (or .def_342 .def_344))
(define-fun .def_315 () Bool (= .def_58 121))
(define-fun .def_293 () Bool (= !pc.next 135))
(define-fun .def_319 () Bool (and .def_293 .def_315))
(define-fun .def_320 () Bool (and .def_247 .def_319))
(define-fun .def_317 () Bool (and .def_315 .def_316))
(define-fun .def_300 () Int (select .def_14 .def_30))
(define-fun .def_301 () (Array Int Int) (store .def_16 .def_30 .def_300))
(define-fun .def_302 () Bool (= |!{$(in_main#0)<a6.6>}.next| .def_301))
(define-fun .def_303 () Bool (and .def_155 .def_302))
(define-fun .def_304 () Bool (and .def_134 .def_303))
(define-fun .def_305 () Bool (and .def_136 .def_304))
(define-fun .def_306 () Bool (and .def_138 .def_305))
(define-fun .def_307 () Bool (and .def_140 .def_306))
(define-fun .def_308 () Bool (and .def_142 .def_307))
(define-fun .def_309 () Bool (and .def_144 .def_308))
(define-fun .def_310 () Bool (and .def_214 .def_309))
(define-fun .def_311 () Bool (and .def_148 .def_310))
(define-fun .def_312 () Bool (and .def_150 .def_311))
(define-fun .def_313 () Bool (and .def_204 .def_312))
(define-fun .def_318 () Bool (and .def_313 .def_317))
(define-fun .def_321 () Bool (or .def_318 .def_320))
(define-fun .def_292 () Bool (= .def_58 135))
(define-fun .def_271 () Bool (= !pc.next 149))
(define-fun .def_296 () Bool (and .def_271 .def_292))
(define-fun .def_297 () Bool (and .def_247 .def_296))
(define-fun .def_294 () Bool (and .def_292 .def_293))
(define-fun .def_278 () Int (select .def_16 .def_30))
(define-fun .def_279 () (Array Int Int) (store .def_18 .def_30 .def_278))
(define-fun .def_280 () Bool (= |!{$(in_main#0)<a7.7>}.next| .def_279))
(define-fun .def_281 () Bool (and .def_156 .def_280))
(define-fun .def_282 () Bool (and .def_136 .def_281))
(define-fun .def_283 () Bool (and .def_138 .def_282))
(define-fun .def_284 () Bool (and .def_140 .def_283))
(define-fun .def_285 () Bool (and .def_142 .def_284))
(define-fun .def_286 () Bool (and .def_144 .def_285))
(define-fun .def_287 () Bool (and .def_214 .def_286))
(define-fun .def_288 () Bool (and .def_148 .def_287))
(define-fun .def_289 () Bool (and .def_150 .def_288))
(define-fun .def_290 () Bool (and .def_204 .def_289))
(define-fun .def_295 () Bool (and .def_290 .def_294))
(define-fun .def_298 () Bool (or .def_295 .def_297))
(define-fun .def_270 () Bool (= .def_58 149))
(define-fun .def_250 () Bool (= !pc.next 163))
(define-fun .def_274 () Bool (and .def_250 .def_270))
(define-fun .def_275 () Bool (and .def_247 .def_274))
(define-fun .def_272 () Bool (and .def_270 .def_271))
(define-fun .def_257 () Int (select .def_18 .def_30))
(define-fun .def_258 () (Array Int Int) (store .def_20 .def_30 .def_257))
(define-fun .def_259 () Bool (= |!{$(in_main#0)<a8.8>}.next| .def_258))
(define-fun .def_260 () Bool (and .def_157 .def_259))
(define-fun .def_261 () Bool (and .def_138 .def_260))
(define-fun .def_262 () Bool (and .def_140 .def_261))
(define-fun .def_263 () Bool (and .def_142 .def_262))
(define-fun .def_264 () Bool (and .def_144 .def_263))
(define-fun .def_265 () Bool (and .def_214 .def_264))
(define-fun .def_266 () Bool (and .def_148 .def_265))
(define-fun .def_267 () Bool (and .def_150 .def_266))
(define-fun .def_268 () Bool (and .def_204 .def_267))
(define-fun .def_273 () Bool (and .def_268 .def_272))
(define-fun .def_276 () Bool (or .def_273 .def_275))
(define-fun .def_249 () Bool (= .def_58 163))
(define-fun .def_225 () Bool (= !pc.next 177))
(define-fun .def_253 () Bool (and .def_225 .def_249))
(define-fun .def_254 () Bool (and .def_247 .def_253))
(define-fun .def_251 () Bool (and .def_249 .def_250))
(define-fun .def_232 () Int (select .def_20 .def_30))
(define-fun .def_233 () (Array Int Int) (store .def_22 .def_30 .def_232))
(define-fun .def_234 () Bool (= |!{$(in_main#0)<a9.9>}.next| .def_233))
(define-fun .def_235 () Bool (and .def_158 .def_234))
(define-fun .def_236 () Bool (and .def_140 .def_235))
(define-fun .def_237 () Bool (and .def_142 .def_236))
(define-fun .def_238 () Bool (and .def_144 .def_237))
(define-fun .def_239 () Bool (and .def_214 .def_238))
(define-fun .def_240 () Bool (and .def_148 .def_239))
(define-fun .def_241 () Bool (and .def_150 .def_240))
(define-fun .def_242 () Bool (and .def_204 .def_241))
(define-fun .def_252 () Bool (and .def_242 .def_251))
(define-fun .def_255 () Bool (or .def_252 .def_254))
(define-fun .def_224 () Bool (= .def_58 177))
(define-fun .def_192 () Bool (= !pc.next 191))
(define-fun .def_228 () Bool (and .def_192 .def_224))
(define-fun .def_219 () Bool (= |!{$(in_main#0)<x>}.next| 0))
(define-fun .def_163 () Bool (and .def_146 .def_162))
(define-fun .def_220 () Bool (and .def_163 .def_219))
(define-fun .def_221 () Bool (and .def_150 .def_220))
(define-fun .def_222 () Bool (and .def_203 .def_221))
(define-fun .def_229 () Bool (and .def_222 .def_228))
(define-fun .def_226 () Bool (and .def_224 .def_225))
(define-fun .def_205 () Int (select .def_22 .def_30))
(define-fun .def_206 () (Array Int Int) (store .def_24 .def_30 .def_205))
(define-fun .def_208 () Bool (= |!{$(in_main#0)<a0.10>}.next| .def_206))
(define-fun .def_209 () Bool (and .def_159 .def_208))
(define-fun .def_210 () Bool (and .def_142 .def_209))
(define-fun .def_211 () Bool (and .def_144 .def_210))
(define-fun .def_215 () Bool (and .def_211 .def_214))
(define-fun .def_216 () Bool (and .def_148 .def_215))
(define-fun .def_217 () Bool (and .def_150 .def_216))
(define-fun .def_218 () Bool (and .def_204 .def_217))
(define-fun .def_227 () Bool (and .def_218 .def_226))
(define-fun .def_230 () Bool (or .def_227 .def_229))
(define-fun .def_196 () Bool (= !pc.next 0))
(define-fun .def_187 () Bool (= .def_58 191))
(define-fun .def_197 () Bool (and .def_187 .def_196))
(define-fun .def_113 () Bool (<= .def_26 .def_32))
(define-fun .def_172 () Bool (and .def_113 .def_124))
(define-fun .def_173 () Bool (and .def_126 .def_172))
(define-fun .def_174 () Bool (and .def_128 .def_173))
(define-fun .def_175 () Bool (and .def_130 .def_174))
(define-fun .def_176 () Bool (and .def_132 .def_175))
(define-fun .def_177 () Bool (and .def_134 .def_176))
(define-fun .def_178 () Bool (and .def_136 .def_177))
(define-fun .def_179 () Bool (and .def_138 .def_178))
(define-fun .def_180 () Bool (and .def_140 .def_179))
(define-fun .def_181 () Bool (and .def_142 .def_180))
(define-fun .def_182 () Bool (and .def_144 .def_181))
(define-fun .def_183 () Bool (and .def_146 .def_182))
(define-fun .def_184 () Bool (and .def_148 .def_183))
(define-fun .def_185 () Bool (and .def_150 .def_184))
(define-fun .def_198 () Bool (and .def_185 .def_197))
(define-fun .def_193 () Bool (and .def_187 .def_192))
(define-fun .def_165 () Int (* (- 1) |!{$(in_main#0)<x>}.next|))
(define-fun .def_166 () Int (+ .def_32 .def_165))
(define-fun .def_167 () Bool (= .def_166 (- 1)))
(define-fun .def_168 () Bool (and .def_163 .def_167))
(define-fun .def_169 () Bool (and .def_150 .def_168))
(define-fun .def_116 () Int (select .def_24 .def_32))
(define-fun .def_115 () Int (select .def_34 .def_32))
(define-fun .def_117 () Bool (= .def_115 .def_116))
(define-fun .def_118 () Int (ite .def_117 1 0))
(define-fun .def_119 () Bool (= .def_118 0))
(define-fun .def_120 () Bool (not .def_119))
(define-fun .def_170 () Bool (and .def_120 .def_169))
(define-fun .def_114 () Bool (not .def_113))
(define-fun .def_171 () Bool (and .def_114 .def_170))
(define-fun .def_194 () Bool (and .def_171 .def_193))
(define-fun .def_189 () Bool (= !pc.next 211))
(define-fun .def_190 () Bool (and .def_187 .def_189))
(define-fun .def_125 () Bool (and .def_119 .def_124))
(define-fun .def_127 () Bool (and .def_125 .def_126))
(define-fun .def_129 () Bool (and .def_127 .def_128))
(define-fun .def_131 () Bool (and .def_129 .def_130))
(define-fun .def_133 () Bool (and .def_131 .def_132))
(define-fun .def_135 () Bool (and .def_133 .def_134))
(define-fun .def_137 () Bool (and .def_135 .def_136))
(define-fun .def_139 () Bool (and .def_137 .def_138))
(define-fun .def_141 () Bool (and .def_139 .def_140))
(define-fun .def_143 () Bool (and .def_141 .def_142))
(define-fun .def_145 () Bool (and .def_143 .def_144))
(define-fun .def_147 () Bool (and .def_145 .def_146))
(define-fun .def_149 () Bool (and .def_147 .def_148))
(define-fun .def_151 () Bool (and .def_149 .def_150))
(define-fun .def_152 () Bool (and .def_114 .def_151))
(define-fun .def_191 () Bool (and .def_152 .def_190))
(define-fun .def_195 () Bool (or .def_191 .def_194))
(define-fun .def_199 () Bool (or .def_195 .def_198))
(define-fun .def_111 () Bool (and .def_61 .def_110))
(define-fun .def_107 () Bool (= |!{$(in_main#0)<a1.1>}.next| |%{$(in_main#0)<a1.1>}#1|))
(define-fun .def_105 () Bool (= |!{$(in_main#0)<x>}.next| |%{$(in_main#0)<x>}#1|))
(define-fun .def_103 () Bool (= |!{$(in_main#0)<i>}.next| |%{$(in_main#0)<i>}#1|))
(define-fun .def_101 () Bool (= |!{$(in_main#0)<a>}.next| 0))
(define-fun .def_99 () Bool (= |!{$(in_main#0)<N>}.next| |!{$(in_main#0)<$(in___VERIFIER_nondet_int#0)<h#<__VERIFIER_nondet_int.return>>>}|))
(define-fun .def_97 () Bool (= |!{$(in_main#0)<a0.10>}.next| |%{$(in_main#0)<a0.10>}#1|))
(define-fun .def_95 () Bool (= |!{$(in_main#0)<a9.9>}.next| |%{$(in_main#0)<a9.9>}#1|))
(define-fun .def_93 () Bool (= |!{$(in_main#0)<a8.8>}.next| |%{$(in_main#0)<a8.8>}#1|))
(define-fun .def_91 () Bool (= |!{$(in_main#0)<a7.7>}.next| |%{$(in_main#0)<a7.7>}#1|))
(define-fun .def_89 () Bool (= |!{$(in_main#0)<a6.6>}.next| |%{$(in_main#0)<a6.6>}#1|))
(define-fun .def_87 () Bool (= |!{$(in_main#0)<a5.5>}.next| |%{$(in_main#0)<a5.5>}#1|))
(define-fun .def_85 () Bool (= |!{$(in_main#0)<a4.4>}.next| |%{$(in_main#0)<a4.4>}#1|))
(define-fun .def_83 () Bool (= |!{$(in_main#0)<a3.3>}.next| |%{$(in_main#0)<a3.3>}#1|))
(define-fun .def_82 () Bool (= |!{$(in_main#0)<a2.2>}.next| |%{$(in_main#0)<a2.2>}#1|))
(define-fun .def_84 () Bool (and .def_82 .def_83))
(define-fun .def_86 () Bool (and .def_84 .def_85))
(define-fun .def_88 () Bool (and .def_86 .def_87))
(define-fun .def_90 () Bool (and .def_88 .def_89))
(define-fun .def_92 () Bool (and .def_90 .def_91))
(define-fun .def_94 () Bool (and .def_92 .def_93))
(define-fun .def_96 () Bool (and .def_94 .def_95))
(define-fun .def_98 () Bool (and .def_96 .def_97))
(define-fun .def_100 () Bool (and .def_98 .def_99))
(define-fun .def_102 () Bool (and .def_100 .def_101))
(define-fun .def_104 () Bool (and .def_102 .def_103))
(define-fun .def_106 () Bool (and .def_104 .def_105))
(define-fun .def_108 () Bool (and .def_106 .def_107))
(define-fun .def_112 () Bool (and .def_108 .def_111))
(define-fun .def_200 () Bool (or .def_112 .def_199))
(define-fun .def_231 () Bool (or .def_200 .def_230))
(define-fun .def_256 () Bool (or .def_231 .def_255))
(define-fun .def_277 () Bool (or .def_256 .def_276))
(define-fun .def_299 () Bool (or .def_277 .def_298))
(define-fun .def_322 () Bool (or .def_299 .def_321))
(define-fun .def_346 () Bool (or .def_322 .def_345))
(define-fun .def_371 () Bool (or .def_346 .def_370))
(define-fun .def_397 () Bool (or .def_371 .def_396))
(define-fun .def_423 () Bool (or .def_397 .def_422))
(define-fun .def_444 () Bool (! (or .def_423 .def_443) :trans true))
(define-fun .def_201 () Bool (= .def_58 211))
(define-fun .def_445 () Bool (! (not .def_201) :invar-property 0 :invar-property-name ||))
(assert true)
